(set-info :status sat)
(declare-const symbol_3 (_ BitVec 32))
(declare-const symbol_1 (_ BitVec 32))
(declare-const symbol_5 (_ BitVec 32))
(assert (= symbol_1 symbol_5))
(assert (= symbol_1 symbol_3))
(check-sat)